; DUP4 SWAP1 MLOAD SWAP1 => MLOAD DUP4
(set-option :produce-proofs true)
; 
(set-info :status unknown)
(declare-fun storage_t ((_ BitVec 256) (_ BitVec 256) (_ BitVec 256) (_ BitVec 256) (_ BitVec 256) Int (_ BitVec 256)) (_ BitVec 256))
(declare-fun storage_s ((_ BitVec 256) (_ BitVec 256) (_ BitVec 256) (_ BitVec 256) (_ BitVec 256) Int (_ BitVec 256)) (_ BitVec 256))
(declare-fun exc_halt_t (Int) Bool)
(declare-fun exc_halt_s (Int) Bool)
(declare-fun sc_t (Int) (_ BitVec 6))
(declare-fun stack_t ((_ BitVec 256) (_ BitVec 256) (_ BitVec 256) (_ BitVec 256) (_ BitVec 256) Int (_ BitVec 6)) (_ BitVec 256))
(declare-fun stack_s ((_ BitVec 256) (_ BitVec 256) (_ BitVec 256) (_ BitVec 256) (_ BitVec 256) Int (_ BitVec 6)) (_ BitVec 256))
(declare-fun sc_s (Int) (_ BitVec 6))
(declare-fun used_gas_t ((_ BitVec 256) (_ BitVec 256) (_ BitVec 256) (_ BitVec 256) (_ BitVec 256) Int) Int)
(declare-fun used_gas_s ((_ BitVec 256) (_ BitVec 256) (_ BitVec 256) (_ BitVec 256) (_ BitVec 256) Int) Int)
(declare-fun f_MLOAD ((_ BitVec 256) (_ BitVec 256) (_ BitVec 256) (_ BitVec 256) (_ BitVec 256) (_ BitVec 256)) (_ BitVec 256))
(assert
 (exists ((x_0 (_ BitVec 256)) (x_1 (_ BitVec 256)) (x_2 (_ BitVec 256)) (x_3 (_ BitVec 256)) (x_MLOAD_0 (_ BitVec 256)) )(let (($x2842 (forall ((w (_ BitVec 256)) )(let ((?x10010 (storage_t x_0 x_1 x_2 x_3 x_MLOAD_0 2 w)))
 (let ((?x9995 (storage_s x_0 x_1 x_2 x_3 x_MLOAD_0 4 w)))
 (= ?x9995 ?x10010))))
 ))
 (let (($x8115 (exc_halt_t 2)))
 (let (($x7172 (exc_halt_s 4)))
 (let (($x5114 (= $x7172 $x8115)))
 (let (($x3571 (forall ((n (_ BitVec 6)) )(let ((?x6158 (sc_t 2)))
 (let (($x10359 (bvsle ?x6158 n)))
 (let ((?x9907 (stack_t x_0 x_1 x_2 x_3 x_MLOAD_0 2 n)))
 (let ((?x3618 (stack_s x_0 x_1 x_2 x_3 x_MLOAD_0 4 n)))
 (let (($x4262 (= ?x3618 ?x9907)))
 (or $x4262 $x10359)))))))
 ))
 (let ((?x6158 (sc_t 2)))
 (let ((?x4305 (sc_s 4)))
 (let (($x3644 (= ?x4305 ?x6158)))
 (let ((?x6391 (used_gas_t x_0 x_1 x_2 x_3 x_MLOAD_0 0)))
 (let ((?x6362 (used_gas_s x_0 x_1 x_2 x_3 x_MLOAD_0 0)))
 (let (($x6905 (= ?x6362 ?x6391)))
 (let (($x9116 (forall ((w (_ BitVec 256)) )(let ((?x1920 (storage_t x_0 x_1 x_2 x_3 x_MLOAD_0 0 w)))
 (let ((?x679 (storage_s x_0 x_1 x_2 x_3 x_MLOAD_0 0 w)))
 (= ?x679 ?x1920))))
 ))
 (let (($x56 (exc_halt_t 0)))
 (let (($x57 (exc_halt_s 0)))
 (let (($x58 (= $x57 $x56)))
 (let (($x8192 (forall ((n (_ BitVec 6)) )(let ((?x63 (sc_t 0)))
 (let (($x11489 (bvsle ?x63 n)))
 (let ((?x6153 (stack_t x_0 x_1 x_2 x_3 x_MLOAD_0 0 n)))
 (let ((?x6682 (stack_s x_0 x_1 x_2 x_3 x_MLOAD_0 0 n)))
 (let (($x1122 (= ?x6682 ?x6153)))
 (or $x1122 $x11489)))))))
 ))
 (let ((?x63 (sc_t 0)))
 (let ((?x72 (sc_s 0)))
 (let (($x73 (= ?x72 ?x63)))
 (let (($x8377 (exc_halt_t 1)))
 (let (($x6160 (not (= ((_ extract 6 6) (bvadd (_ bv1 7) (concat (_ bv0 1) (sc_t 1)))) (_ bv0 1)))))
 (let (($x668 (forall ((w (_ BitVec 256)) )(let ((?x9965 (storage_t x_0 x_1 x_2 x_3 x_MLOAD_0 1 w)))
 (let ((?x10010 (storage_t x_0 x_1 x_2 x_3 x_MLOAD_0 2 w)))
 (= ?x10010 ?x9965))))
 ))
 (let (($x7202 (forall ((n (_ BitVec 6)) )(let ((?x7486 (stack_t x_0 x_1 x_2 x_3 x_MLOAD_0 1 n)))
 (let ((?x9907 (stack_t x_0 x_1 x_2 x_3 x_MLOAD_0 2 n)))
 (or (bvsle (bvadd (_ bv60 6) (sc_t 1)) n) (= ?x9907 ?x7486)))))
 ))
 (let (($x9815 (= ?x6158 (bvadd (_ bv1 6) (sc_t 1)))))
 (let (($x11906 (= (used_gas_t x_0 x_1 x_2 x_3 x_MLOAD_0 2) (+ 3 (used_gas_t x_0 x_1 x_2 x_3 x_MLOAD_0 1)))))
 (let ((?x7154 (sc_t 1)))
 (let ((?x1237 (bvadd (_ bv63 6) ?x7154)))
 (let ((?x3477 (stack_t x_0 x_1 x_2 x_3 x_MLOAD_0 1 ?x1237)))
 (let (($x11981 (= (stack_t x_0 x_1 x_2 x_3 x_MLOAD_0 2 (bvadd (_ bv62 6) ?x7154)) (stack_t x_0 x_1 x_2 x_3 x_MLOAD_0 1 (bvadd (_ bv62 6) ?x7154)))))
 (let (($x10082 (= (stack_t x_0 x_1 x_2 x_3 x_MLOAD_0 2 (bvadd (_ bv61 6) ?x7154)) (stack_t x_0 x_1 x_2 x_3 x_MLOAD_0 1 (bvadd (_ bv61 6) ?x7154)))))
 (let ((?x10420 (bvadd (_ bv60 6) ?x7154)))
 (let ((?x3345 (stack_t x_0 x_1 x_2 x_3 x_MLOAD_0 1 ?x10420)))
 (let (($x10609 (forall ((w (_ BitVec 256)) )(let ((?x1920 (storage_t x_0 x_1 x_2 x_3 x_MLOAD_0 0 w)))
 (let ((?x9965 (storage_t x_0 x_1 x_2 x_3 x_MLOAD_0 1 w)))
 (= ?x9965 ?x1920))))
 ))
 (let (($x21 (forall ((n (_ BitVec 6)) )(let ((?x6153 (stack_t x_0 x_1 x_2 x_3 x_MLOAD_0 0 n)))
 (let ((?x7486 (stack_t x_0 x_1 x_2 x_3 x_MLOAD_0 1 n)))
 (or (= ?x7486 ?x6153) (bvsle (bvadd (_ bv63 6) (sc_t 0)) n)))))
 ))
 (let ((?x6913 (f_MLOAD x_0 x_1 x_2 x_3 x_MLOAD_0 (stack_t x_0 x_1 x_2 x_3 x_MLOAD_0 0 (bvadd (_ bv63 6) ?x63)))))
 (let (($x9998 (= $x7172 (or (exc_halt_s 3) (not (bvsle (_ bv0 6) (bvadd (_ bv62 6) (sc_s 3))))))))
 (let (($x8516 (forall ((w (_ BitVec 256)) )(let ((?x1181 (storage_s x_0 x_1 x_2 x_3 x_MLOAD_0 3 w)))
 (let ((?x9995 (storage_s x_0 x_1 x_2 x_3 x_MLOAD_0 4 w)))
 (= ?x9995 ?x1181))))
 ))
 (let (($x4170 (forall ((n (_ BitVec 6)) )(let ((?x2515 (stack_s x_0 x_1 x_2 x_3 x_MLOAD_0 3 n)))
 (let ((?x3618 (stack_s x_0 x_1 x_2 x_3 x_MLOAD_0 4 n)))
 (or (bvsle (bvadd (_ bv62 6) (sc_s 3)) n) (= ?x3618 ?x2515)))))
 ))
 (let ((?x275 (sc_s 3)))
 (let (($x10711 (= ?x4305 ?x275)))
 (let (($x7225 (= (used_gas_s x_0 x_1 x_2 x_3 x_MLOAD_0 4) (+ 3 (used_gas_s x_0 x_1 x_2 x_3 x_MLOAD_0 3)))))
 (let ((?x7749 (bvadd (_ bv63 6) ?x275)))
 (let ((?x2516 (stack_s x_0 x_1 x_2 x_3 x_MLOAD_0 3 ?x7749)))
 (let (($x486 (= (stack_s x_0 x_1 x_2 x_3 x_MLOAD_0 4 (bvadd (_ bv63 6) ?x4305)) (stack_s x_0 x_1 x_2 x_3 x_MLOAD_0 3 (bvadd (_ bv62 6) ?x275)))))
 (let (($x292 (exc_halt_s 3)))
 (let (($x10211 (= $x292 (or (exc_halt_s 2) (not (bvsle (_ bv0 6) (bvadd (_ bv63 6) (sc_s 2))))))))
 (let (($x7561 (forall ((w (_ BitVec 256)) )(let ((?x5974 (storage_s x_0 x_1 x_2 x_3 x_MLOAD_0 2 w)))
 (let ((?x1181 (storage_s x_0 x_1 x_2 x_3 x_MLOAD_0 3 w)))
 (= ?x1181 ?x5974))))
 ))
 (let (($x5750 (forall ((n (_ BitVec 6)) )(let ((?x9702 (stack_s x_0 x_1 x_2 x_3 x_MLOAD_0 2 n)))
 (let ((?x2515 (stack_s x_0 x_1 x_2 x_3 x_MLOAD_0 3 n)))
 (let ((?x218 (sc_s 2)))
 (let ((?x4018 (bvadd (_ bv63 6) ?x218)))
 (let (($x6278 (bvsle ?x4018 n)))
 (or $x6278 (= ?x2515 ?x9702))))))))
 ))
 (let ((?x218 (sc_s 2)))
 (let (($x939 (= ?x275 ?x218)))
 (let ((?x10457 (used_gas_s x_0 x_1 x_2 x_3 x_MLOAD_0 3)))
 (let ((?x4018 (bvadd (_ bv63 6) ?x218)))
 (let ((?x11136 (stack_s x_0 x_1 x_2 x_3 x_MLOAD_0 2 ?x4018)))
 (let (($x247 (exc_halt_s 2)))
 (let (($x9840 (= $x247 (or (exc_halt_s 1) (not (bvsle (_ bv0 6) (bvadd (_ bv62 6) (sc_s 1))))))))
 (let (($x6664 (forall ((w (_ BitVec 256)) )(let ((?x6674 (storage_s x_0 x_1 x_2 x_3 x_MLOAD_0 1 w)))
 (let ((?x5974 (storage_s x_0 x_1 x_2 x_3 x_MLOAD_0 2 w)))
 (= ?x5974 ?x6674))))
 ))
 (let (($x2167 (forall ((n (_ BitVec 6)) )(let ((?x5927 (stack_s x_0 x_1 x_2 x_3 x_MLOAD_0 1 n)))
 (let ((?x9702 (stack_s x_0 x_1 x_2 x_3 x_MLOAD_0 2 n)))
 (let ((?x154 (sc_s 1)))
 (let ((?x9584 (bvadd (_ bv62 6) ?x154)))
 (let (($x1345 (bvsle ?x9584 n)))
 (or $x1345 (= ?x9702 ?x5927))))))))
 ))
 (let ((?x9287 (used_gas_s x_0 x_1 x_2 x_3 x_MLOAD_0 2)))
 (let ((?x154 (sc_s 1)))
 (let ((?x1096 (bvadd (_ bv63 6) ?x154)))
 (let ((?x8913 (stack_s x_0 x_1 x_2 x_3 x_MLOAD_0 1 ?x1096)))
 (let (($x10696 (not (= ((_ extract 6 6) (bvadd (_ bv1 7) (concat (_ bv0 1) ?x72))) (_ bv0 1)))))
 (let (($x189 (exc_halt_s 1)))
 (let (($x8899 (forall ((w (_ BitVec 256)) )(let ((?x679 (storage_s x_0 x_1 x_2 x_3 x_MLOAD_0 0 w)))
 (let ((?x6674 (storage_s x_0 x_1 x_2 x_3 x_MLOAD_0 1 w)))
 (= ?x6674 ?x679))))
 ))
 (let (($x8431 (forall ((n (_ BitVec 6)) )(let ((?x6682 (stack_s x_0 x_1 x_2 x_3 x_MLOAD_0 0 n)))
 (let ((?x5927 (stack_s x_0 x_1 x_2 x_3 x_MLOAD_0 1 n)))
 (or (bvsle (bvadd (_ bv60 6) (sc_s 0)) n) (= ?x5927 ?x6682)))))
 ))
 (let (($x3182 (= ?x154 (bvadd (_ bv1 6) ?x72))))
 (let (($x1693 (= (stack_s x_0 x_1 x_2 x_3 x_MLOAD_0 1 (bvadd (_ bv63 6) ?x72)) (stack_s x_0 x_1 x_2 x_3 x_MLOAD_0 0 (bvadd (_ bv63 6) ?x72)))))
 (let (($x2528 (= (stack_s x_0 x_1 x_2 x_3 x_MLOAD_0 1 (bvadd (_ bv62 6) ?x72)) (stack_s x_0 x_1 x_2 x_3 x_MLOAD_0 0 (bvadd (_ bv62 6) ?x72)))))
 (let (($x1356 (= (stack_s x_0 x_1 x_2 x_3 x_MLOAD_0 1 (bvadd (_ bv61 6) ?x72)) (stack_s x_0 x_1 x_2 x_3 x_MLOAD_0 0 (bvadd (_ bv61 6) ?x72)))))
 (let ((?x2728 (bvadd (_ bv60 6) ?x72)))
 (let ((?x1195 (stack_s x_0 x_1 x_2 x_3 x_MLOAD_0 0 ?x2728)))
 (let (($x3410 (forall ((w0 (_ BitVec 256)) )(let (($x519 (= (stack_s x_0 x_1 x_2 x_3 x_MLOAD_0 2 (bvadd (_ bv63 6) (sc_s 2))) w0)))
 (let ((?x1351 (f_MLOAD x_0 x_1 x_2 x_3 x_MLOAD_0 w0)))
 (= ?x1351 (ite $x519 x_MLOAD_0 (_ bv0 256))))))
 ))
 (let (($x4599 (forall ((w (_ BitVec 256)) )(let ((?x679 (storage_s x_0 x_1 x_2 x_3 x_MLOAD_0 0 w)))
 (= ?x679 (_ bv0 256))))
 ))
 (let (($x1404 (= ?x6362 0)))
 (let (($x9420 (not $x57)))
 (let (($x4399 (= (stack_s x_0 x_1 x_2 x_3 x_MLOAD_0 0 (_ bv3 6)) x_3)))
 (let (($x9358 (= (stack_s x_0 x_1 x_2 x_3 x_MLOAD_0 0 (_ bv2 6)) x_2)))
 (let (($x9086 (= (stack_s x_0 x_1 x_2 x_3 x_MLOAD_0 0 (_ bv1 6)) x_1)))
 (let (($x8143 (= (stack_s x_0 x_1 x_2 x_3 x_MLOAD_0 0 (_ bv0 6)) x_0)))
 (let (($x11199 (= ?x72 (_ bv4 6))))
 (and $x11199 $x8143 $x9086 $x9358 $x4399 $x9420 $x1404 $x4599 $x3410 (= ?x8913 ?x1195) (= (stack_s x_0 x_1 x_2 x_3 x_MLOAD_0 1 ?x2728) ?x1195) $x1356 $x2528 $x1693 (= (used_gas_s x_0 x_1 x_2 x_3 x_MLOAD_0 1) (+ 3 ?x6362)) $x3182 $x8431 $x8899 (= $x189 (or $x57 (not (bvsle (_ bv0 6) ?x2728)) $x10696)) (= ?x11136 (stack_s x_0 x_1 x_2 x_3 x_MLOAD_0 1 (bvadd (_ bv62 6) ?x154))) (= (stack_s x_0 x_1 x_2 x_3 x_MLOAD_0 2 (bvadd (_ bv62 6) ?x218)) ?x8913) (= ?x9287 (+ 3 (used_gas_s x_0 x_1 x_2 x_3 x_MLOAD_0 1))) (= ?x218 ?x154) $x2167 $x6664 $x9840 (= ?x2516 (f_MLOAD x_0 x_1 x_2 x_3 x_MLOAD_0 ?x11136)) (= ?x10457 (+ 3 ?x9287)) $x939 $x5750 $x7561 $x10211 $x486 (= (stack_s x_0 x_1 x_2 x_3 x_MLOAD_0 4 (bvadd (_ bv62 6) ?x4305)) ?x2516) $x7225 $x10711 $x4170 $x8516 $x9998 (= ?x3477 ?x6913) (= (used_gas_t x_0 x_1 x_2 x_3 x_MLOAD_0 1) (+ 3 ?x6391)) (= ?x7154 ?x63) $x21 $x10609 (= $x8377 (or $x56 (not (bvsle (_ bv0 6) (bvadd (_ bv63 6) ?x63))))) (= (stack_t x_0 x_1 x_2 x_3 x_MLOAD_0 2 (bvadd (_ bv63 6) ?x6158)) ?x3345) (= (stack_t x_0 x_1 x_2 x_3 x_MLOAD_0 2 ?x10420) ?x3345) $x10082 $x11981 (= (stack_t x_0 x_1 x_2 x_3 x_MLOAD_0 2 ?x1237) ?x3477) $x11906 $x9815 $x7202 $x668 (= $x8115 (or (not (bvsle (_ bv0 6) ?x10420)) $x6160 $x8377)) $x73 $x8192 $x58 $x9116 $x6905 (not (and $x3644 $x3571 $x5114 $x2842))))))))))))))))))))))))))))))))))))))))))))))))))))))))))))))))))))))))))))))))))))
 )
(check-sat)
(get-proof)
